set VV := 0 1 2 3 4 5 6 7 8 9 10 11 12 13 14 15 16 17 18 19 20 21 22 ;
set VS := 0 1 2 3 4 5 6 7 8 9 10 11 12 13 14 15 16 17 18 19 20 21 22 23 24 25 26 27 28 29 30 31 32 33 34 35 36 37 38 39 40 41 42 43 44 45 46 47 48 49 50 ;
param cv := 
0 18
1 16
2 18
3 24
4 18
5 13
6 22
7 25
8 23
9 21
10 23
11 12
12 15
13 19
14 10
15 24
16 16
17 10
18 24
19 18
20 25
21 18
22 15
;
param cs := 
0 23
1 30
2 38
3 20
4 34
5 32
6 35
7 34
8 24
9 40
10 34
11 26
12 39
13 35
14 30
15 31
16 32
17 31
18 33
19 31
20 36
21 36
22 32
23 29
24 20
25 21
26 28
27 35
28 33
29 25
30 35
31 27
32 33
33 21
34 25
35 34
36 26
37 21
38 26
39 39
40 24
41 28
42 34
43 24
44 21
45 28
46 33
47 26
48 30
49 34
50 28
;
param bv:	 0 1 2 3 4 5 6 7 8 9 10 11 12 13 14 15 16 17 18 19 20 21 22 := 
		0 0 0 0 16 0 0 0 24 0 0 0 0 0 0 0 0 0 0 0 0 0 0 0 
		1 0 0 0 0 0 0 0 0 0 0 0 0 0 0 0 0 0 0 0 12 0 0 0 
		2 0 0 0 0 0 0 25 0 0 0 0 0 0 0 0 0 0 0 0 0 0 17 0 
		3 0 0 0 0 0 0 0 0 0 0 0 0 0 0 0 0 0 0 0 24 0 0 0 
		4 0 0 0 0 0 0 0 0 0 0 0 0 0 0 0 0 0 0 0 0 0 21 0 
		5 0 0 0 0 0 0 13 0 0 0 0 0 0 0 0 0 0 0 0 10 17 0 0 
		6 0 0 0 0 0 0 0 0 0 0 0 0 0 0 0 0 13 0 0 21 0 0 0 
		7 0 0 0 0 0 0 0 0 14 0 12 0 0 0 0 18 0 0 0 0 0 0 0 
		8 0 0 0 0 0 0 0 0 0 0 0 0 0 0 18 0 0 0 0 0 0 0 10 
		9 0 0 0 0 0 0 0 0 0 0 0 22 0 0 0 0 20 0 0 0 0 0 0 
		10 0 0 0 0 0 0 0 0 0 0 0 0 0 0 0 0 14 0 0 0 0 0 25 
		11 0 0 0 0 0 0 0 0 0 0 0 0 13 0 0 0 18 11 0 0 0 11 0 
		12 0 0 0 0 0 0 0 0 0 0 0 0 0 0 0 0 0 21 0 0 0 0 0 
		13 0 0 0 0 0 0 0 0 0 0 0 0 0 0 0 20 0 0 15 0 14 21 0 
		14 0 0 0 0 0 0 0 0 0 0 0 0 0 0 0 0 0 0 0 0 0 0 0 
		15 0 0 0 0 0 0 0 0 0 0 0 0 0 0 0 0 0 0 0 0 0 0 0 
		16 0 0 0 0 0 0 0 0 0 0 0 0 0 0 0 0 0 0 0 0 0 0 0 
		17 0 0 0 0 0 0 0 0 0 0 0 0 0 0 0 0 0 0 0 0 0 0 0 
		18 0 0 0 0 0 0 0 0 0 0 0 0 0 0 0 0 0 0 0 0 0 0 13 
		19 0 0 0 0 0 0 0 0 0 0 0 0 0 0 0 0 0 0 0 0 0 0 0 
		20 0 0 0 0 0 0 0 0 0 0 0 0 0 0 0 0 0 0 0 0 0 0 0 
		21 0 0 0 0 0 0 0 0 0 0 0 0 0 0 0 0 0 0 0 0 0 0 0 
		22 0 0 0 0 0 0 0 0 0 0 0 0 0 0 0 0 0 0 0 0 0 0 0 
;
param bs:	 0 1 2 3 4 5 6 7 8 9 10 11 12 13 14 15 16 17 18 19 20 21 22 23 24 25 26 27 28 29 30 31 32 33 34 35 36 37 38 39 40 41 42 43 44 45 46 47 48 49 50 := 
		0 0 0 0 0 0 0 0 39 0 28 0 0 0 0 0 0 0 0 0 0 0 0 0 27 0 32 0 0 0 0 0 0 0 0 0 0 0 0 0 0 0 0 0 0 0 0 23 0 0 0 0 
		1 0 0 0 0 0 0 0 0 0 0 0 0 0 0 0 0 0 0 0 27 0 0 0 0 0 0 0 0 0 0 0 0 0 0 0 0 0 0 0 0 0 0 0 40 0 0 0 0 0 0 0 
		2 0 0 0 0 0 0 0 0 0 0 0 0 0 0 0 0 0 0 0 0 38 0 36 0 0 0 0 0 0 0 0 0 0 0 0 0 0 0 0 33 25 0 0 22 0 0 0 0 0 0 0 
		3 0 0 0 0 28 0 0 24 0 0 0 0 31 36 23 0 0 0 0 0 0 30 0 0 29 0 0 0 0 0 31 0 0 0 0 0 0 0 0 0 21 0 0 0 0 0 0 0 0 0 0 
		4 0 0 0 28 0 0 0 0 0 0 0 0 21 30 20 0 0 0 0 0 0 0 0 0 26 0 0 0 28 0 0 0 0 0 0 0 0 0 0 22 0 0 0 28 0 0 0 0 0 0 0 
		5 0 0 0 0 0 0 0 0 0 0 40 0 0 0 0 0 0 24 0 0 0 0 0 0 0 0 0 0 0 0 0 0 0 0 0 0 0 0 0 28 0 0 38 24 0 0 0 34 0 0 0 
		6 0 0 0 0 0 0 0 20 0 20 0 0 0 0 0 0 0 0 0 0 0 0 0 0 0 0 0 0 0 0 0 0 0 0 0 0 0 0 0 0 31 0 0 0 0 0 0 0 0 0 0 
		7 39 0 0 24 0 0 20 0 0 0 0 0 0 0 39 0 0 0 0 0 0 25 0 0 0 0 0 0 0 0 31 0 0 22 0 0 0 0 0 0 0 0 0 0 0 0 0 0 0 0 0 
		8 0 0 0 0 0 0 0 0 0 0 0 0 0 0 0 0 0 0 0 0 0 0 0 0 0 0 0 0 0 0 0 0 0 0 0 0 0 0 0 0 0 0 0 0 0 0 24 0 0 0 0 
		9 28 0 0 0 0 0 20 0 0 0 0 0 0 0 0 0 0 0 0 0 0 0 0 0 0 0 0 0 0 0 0 0 0 0 0 0 0 0 40 0 0 0 0 0 0 0 0 0 0 0 0 
		10 0 0 0 0 0 40 0 0 0 0 0 26 0 0 40 0 0 0 0 0 0 0 0 0 26 20 0 0 0 0 40 0 0 0 0 0 0 0 0 0 0 0 0 0 0 26 0 0 0 0 0 
		11 0 0 0 0 0 0 0 0 0 0 26 0 0 0 0 0 0 0 0 0 0 0 0 32 0 0 0 0 0 0 0 0 0 0 33 0 27 0 0 0 0 0 0 0 0 0 0 0 0 0 0 
		12 0 0 0 31 21 0 0 0 0 0 0 0 0 22 0 0 38 0 0 0 0 0 23 0 0 0 0 0 0 0 0 0 0 0 0 0 0 0 0 0 0 0 0 0 0 0 0 0 0 36 0 
		13 0 0 0 36 30 0 0 0 0 0 0 0 22 0 0 0 0 0 0 0 39 0 0 27 0 0 0 0 0 0 0 0 23 0 35 0 0 0 21 0 0 31 24 31 0 0 0 0 0 23 0 
		14 0 0 0 23 20 0 0 39 0 0 40 0 0 0 0 0 22 0 0 40 0 0 0 33 0 0 0 0 0 33 0 0 0 0 34 0 0 0 0 0 0 0 26 0 0 0 0 0 0 0 0 
		15 0 0 0 0 0 0 0 0 0 0 0 0 0 0 0 0 0 0 0 25 0 36 26 0 0 35 0 34 0 0 0 36 0 0 0 0 20 0 0 0 0 0 0 0 0 0 0 0 0 27 0 
		16 0 0 0 0 0 0 0 0 0 0 0 0 38 0 22 0 0 0 0 0 0 23 0 0 0 0 28 0 0 0 0 0 0 0 0 0 0 0 0 0 0 0 0 0 0 0 0 0 0 0 0 
		17 0 0 0 0 0 24 0 0 0 0 0 0 0 0 0 0 0 0 0 0 0 0 0 32 0 0 25 0 0 0 0 0 38 0 0 36 27 0 0 0 0 0 0 0 0 0 0 39 0 0 35 
		18 0 0 0 0 0 0 0 0 0 0 0 0 0 0 0 0 0 0 0 0 0 0 0 0 0 0 39 0 0 0 0 24 0 0 0 0 23 0 0 0 0 33 0 0 0 0 0 0 0 0 0 
		19 0 27 0 0 0 0 0 0 0 0 0 0 0 0 40 25 0 0 0 0 0 0 0 0 0 0 0 0 0 0 28 0 0 0 0 0 0 0 0 40 0 0 0 22 0 0 0 0 0 0 0 
		20 0 0 38 0 0 0 0 0 0 0 0 0 0 39 0 0 0 0 0 0 0 0 0 0 0 0 0 0 0 0 0 0 0 0 23 0 0 0 0 22 0 31 0 0 0 0 32 0 0 0 0 
		21 0 0 0 30 0 0 0 25 0 0 0 0 0 0 0 36 23 0 0 0 0 0 22 0 0 0 0 0 0 0 0 0 0 37 0 0 0 0 0 26 0 0 23 0 0 0 0 0 0 0 0 
		22 0 0 36 0 0 0 0 0 0 0 0 0 23 0 0 26 0 0 0 0 0 22 0 0 0 37 30 0 0 29 0 0 0 0 30 0 0 23 0 0 0 0 0 0 0 0 0 0 0 24 20 
		23 27 0 0 0 0 0 0 0 0 0 0 32 0 27 33 0 0 32 0 0 0 0 0 0 0 34 30 0 0 35 0 0 22 0 0 0 0 29 0 0 22 37 0 0 0 0 0 0 0 0 0 
		24 0 0 0 29 26 0 0 0 0 0 26 0 0 0 0 0 0 0 0 0 0 0 0 0 0 0 0 0 0 0 34 0 0 0 0 0 0 0 0 0 0 0 0 0 0 0 0 0 0 31 0 
		25 32 0 0 0 0 0 0 0 0 0 20 0 0 0 0 35 0 0 0 0 0 0 37 34 0 0 0 0 0 22 0 0 0 40 0 0 24 23 0 32 0 0 28 37 0 0 0 0 0 0 0 
		26 0 0 0 0 0 0 0 0 0 0 0 0 0 0 0 0 28 25 39 0 0 0 30 30 0 0 0 0 27 34 0 0 0 28 0 0 0 0 0 0 0 0 0 0 0 0 29 0 0 0 0 
		27 0 0 0 0 0 0 0 0 0 0 0 0 0 0 0 34 0 0 0 0 0 0 0 0 0 0 0 0 0 0 0 0 0 20 0 0 0 0 0 0 0 0 0 0 0 0 0 0 0 0 0 
		28 0 0 0 0 28 0 0 0 0 0 0 0 0 0 0 0 0 0 0 0 0 0 0 0 0 0 27 0 0 0 0 0 0 0 0 0 0 0 0 0 0 0 0 33 0 0 0 0 0 0 0 
		29 0 0 0 0 0 0 0 0 0 0 0 0 0 0 33 0 0 0 0 0 0 0 29 35 0 22 34 0 0 0 0 0 0 0 0 0 0 0 0 0 22 0 0 0 0 0 0 35 0 0 33 
		30 0 0 0 31 0 0 0 31 0 0 40 0 0 0 0 0 0 0 0 28 0 0 0 0 34 0 0 0 0 0 0 0 0 0 38 0 0 0 0 0 0 22 0 0 0 0 0 0 0 0 0 
		31 0 0 0 0 0 0 0 0 0 0 0 0 0 0 0 36 0 0 24 0 0 0 0 0 0 0 0 0 0 0 0 0 0 0 26 0 0 0 0 0 0 0 0 0 0 0 0 0 0 31 0 
		32 0 0 0 0 0 0 0 0 0 0 0 0 0 23 0 0 0 38 0 0 0 0 0 22 0 0 0 0 0 0 0 0 0 32 0 0 0 0 0 0 0 0 0 0 0 0 0 0 0 0 0 
		33 0 0 0 0 0 0 0 22 0 0 0 0 0 0 0 0 0 0 0 0 0 37 0 0 0 40 28 20 0 0 0 0 32 0 0 24 0 0 0 0 20 33 0 0 0 0 0 28 0 0 0 
		34 0 0 0 0 0 0 0 0 0 0 0 33 0 35 34 0 0 0 0 0 23 0 30 0 0 0 0 0 0 0 38 26 0 0 0 0 0 0 0 20 0 0 25 0 0 0 0 38 0 39 0 
		35 0 0 0 0 0 0 0 0 0 0 0 0 0 0 0 0 0 36 0 0 0 0 0 0 0 0 0 0 0 0 0 0 0 24 0 0 0 0 0 0 0 0 0 0 0 0 0 0 23 0 38 
		36 0 0 0 0 0 0 0 0 0 0 0 27 0 0 0 20 0 27 23 0 0 0 0 0 0 24 0 0 0 0 0 0 0 0 0 0 0 0 0 0 0 32 28 0 0 0 0 0 0 36 0 
		37 0 0 0 0 0 0 0 0 0 0 0 0 0 0 0 0 0 0 0 0 0 0 23 29 0 23 0 0 0 0 0 0 0 0 0 0 0 0 0 0 35 0 0 0 0 0 0 0 0 0 36 
		38 0 0 0 0 0 0 0 0 0 40 0 0 0 21 0 0 0 0 0 0 0 0 0 0 0 0 0 0 0 0 0 0 0 0 0 0 0 0 0 0 0 0 0 0 0 0 0 0 0 0 0 
		39 0 0 33 0 22 28 0 0 0 0 0 0 0 0 0 0 0 0 0 40 22 26 0 0 0 32 0 0 0 0 0 0 0 0 20 0 0 0 0 0 0 38 0 0 0 0 0 0 0 0 0 
		40 0 0 25 21 0 0 31 0 0 0 0 0 0 0 0 0 0 0 0 0 0 0 0 22 0 0 0 0 0 22 0 0 0 20 0 0 0 35 0 0 0 25 0 0 0 0 0 38 0 0 0 
		41 0 0 0 0 0 0 0 0 0 0 0 0 0 31 0 0 0 0 33 0 31 0 0 37 0 0 0 0 0 0 22 0 0 33 0 0 32 0 0 38 25 0 0 0 38 0 0 0 0 0 0 
		42 0 0 0 0 0 38 0 0 0 0 0 0 0 24 26 0 0 0 0 0 0 23 0 0 0 28 0 0 0 0 0 0 0 0 25 0 28 0 0 0 0 0 0 0 0 0 0 0 0 0 0 
		43 0 40 22 0 28 24 0 0 0 0 0 0 0 31 0 0 0 0 0 22 0 0 0 0 0 37 0 0 33 0 0 0 0 0 0 0 0 0 0 0 0 0 0 0 0 0 0 0 29 0 0 
		44 0 0 0 0 0 0 0 0 0 0 0 0 0 0 0 0 0 0 0 0 0 0 0 0 0 0 0 0 0 0 0 0 0 0 0 0 0 0 0 0 0 38 0 0 0 0 0 0 0 0 0 
		45 0 0 0 0 0 0 0 0 0 0 26 0 0 0 0 0 0 0 0 0 0 0 0 0 0 0 0 0 0 0 0 0 0 0 0 0 0 0 0 0 0 0 0 0 0 0 0 0 0 0 0 
		46 23 0 0 0 0 0 0 0 24 0 0 0 0 0 0 0 0 0 0 0 32 0 0 0 0 0 29 0 0 0 0 0 0 0 0 0 0 0 0 0 0 0 0 0 0 0 0 0 0 0 31 
		47 0 0 0 0 0 34 0 0 0 0 0 0 0 0 0 0 0 39 0 0 0 0 0 0 0 0 0 0 0 35 0 0 0 28 38 0 0 0 0 0 38 0 0 0 0 0 0 0 0 0 0 
		48 0 0 0 0 0 0 0 0 0 0 0 0 0 0 0 0 0 0 0 0 0 0 0 0 0 0 0 0 0 0 0 0 0 0 0 23 0 0 0 0 0 0 0 29 0 0 0 0 0 0 0 
		49 0 0 0 0 0 0 0 0 0 0 0 0 36 23 0 27 0 0 0 0 0 0 24 0 31 0 0 0 0 0 0 31 0 0 39 0 36 0 0 0 0 0 0 0 0 0 0 0 0 0 0 
		50 0 0 0 0 0 0 0 0 0 0 0 0 0 0 0 0 0 35 0 0 0 0 20 0 0 0 0 0 0 33 0 0 0 0 0 38 0 36 0 0 0 0 0 0 0 0 31 0 0 0 0 
;
